NAME : CC65.2163993.tour
COMMENT : Cost = 0_2163993
COMMENT : Found by LKH [Keld Helsgaun] Sun Apr 23 15:14:36 2017
TYPE : TOUR
DIMENSION : 134
TOUR_SECTION
1
35
100
36
101
61
126
33
98
3
68
30
95
56
121
4
69
6
71
11
76
22
87
29
12
94
77
17
26
82
54
91
39
119
21
86
10
104
75
66
131
134
28
93
18
38
103
83
51
116
16
81
64
129
23
88
27
92
59
124
57
60
122
55
120
125
53
65
118
130
25
90
133
41
32
97
106
45
110
44
109
20
85
50
62
127
115
15
80
40
105
58
123
9
74
132
7
72
13
78
47
112
42
107
14
79
5
70
8
49
114
52
73
117
43
108
48
113
37
102
63
128
46
31
96
111
34
24
99
2
67
89
19
84
-1
EOF
